Route #1: 1 1 32 11 49 29 36 31 1 
Route #2: 1 26 7 43 23 14 46 1 
Route #3: 1 28 2 21 50 16 17 1 
Route #4: 1 20 34 9 38 1 
Route #5: 1 8 22 5 47 1 
Route #6: 1 27 6 24 25 4 1 
Route #7: 1 12 37 44 15 45 10 1 
Route #8: 1 48 19 30 35 3 1 
Route #9: 1 18 13 40 1 
Route #10: 1 39 33 42 41 1 

Cost 1133.99
Time 0.5916


 * Another infos *

 Iterations: 51 Time: 0.5916 sec - 0.0099 min - 0.0002 horas
0.0000 h 0.0099 min
Problem dimension: 51
